coords = array2d(1..55, 1..2, [694, 144, 400, 878, 981, 694, 849, 157, 912,
    327, 618, 547, 843, 538, 137, 458, 87, 589, 648, 874, 564, 493,
    15, 493, 937, 903, 518, 954, 153, 183, 183, 395, 993, 633, 768,
    277, 624, 709, 724, 56, 549, 521, 840, 686, 292, 253, 313, 601,
    100, 915, 246, 426, 293, 55, 575, 674, 72, 237, 275, 466, 820,
    490, 551, 269, 551, 700, 334, 33, 508, 572, 621, 243, 582, 409,
    781, 662, 300, 46, 11, 678, 463, 32, 140, 707, 856, 398, 283, 396,
    682, 195, 465, 565, 181, 892, 627, 258, 600, 639, 218, 784, 702,
    705, 239, 731, 666, 572, 868, 35, 524, 855]);

n = 55;

